results/mps/Fattahi_setup_08.mps
NAME F-JSSP-SDST
ROWS
 N  OBJ
 E  c0      
 E  c1      
 E  c2      
 E  c3      
 E  c4      
 E  c5      
 E  c6      
 E  c7      
 E  c8      
 L  c9      
 L  c10     
 L  c11     
 L  c12     
 L  c13     
 L  c14     
 L  c15     
 L  c16     
 L  c17     
 L  c18     
 L  c19     
 L  c20     
 L  c21     
 L  c22     
 L  c23     
 L  c24     
 L  c25     
 L  c26     
 G  c27     
 G  c28     
 G  c29     
 G  c30     
 G  c31     
 G  c32     
 G  c33     
 G  c34     
 G  c35     
 G  c36     
 G  c37     
 G  c38     
 G  c39     
 G  c40     
 G  c41     
 G  c42     
 G  c43     
 G  c44     
 G  c45     
 G  c46     
 G  c47     
 G  c48     
 G  c49     
 G  c50     
 G  c51     
 G  c52     
 G  c53     
 G  c54     
 G  c55     
 G  c56     
 G  c57     
 G  c58     
 G  c59     
 G  c60     
 G  c61     
 G  c62     
 G  c63     
 G  c64     
 G  c65     
 G  c66     
 G  c67     
 G  c68     
 G  c69     
 G  c70     
 G  c71     
 G  c72     
 G  c73     
 G  c74     
 G  c75     
 G  c76     
 G  c77     
 G  c78     
 G  c79     
 G  c80     
 G  c81     
 G  c82     
 G  c83     
 G  c84     
 G  c85     
 G  c86     
 G  c87     
 G  c88     
 G  c89     
 G  c90     
 G  c91     
 G  c92     
 G  c93     
 G  c94     
 G  c95     
 G  c96     
 G  c97     
 G  c98     
 G  c99     
 G  c100    
 G  c101    
 G  c102    
 G  c103    
 G  c104    
 G  c105    
 G  c106    
 G  c107    
 G  c108    
 G  c109    
 E  c110    
COLUMNS
    MARKER    'MARKER'                 'INTORG'
    B0(9)     c0        1
    B0(9)     c9        -1000000000
    B0(9)     c27       -17
    B0(9)     c28       -17
    B0(9)     c38       -1000000000
    B0(9)     c39       -1000000000
    B0(9)     c42       -1000000000
    B0(9)     c43       -1000000000
    B0(9)     c110      -17
    B1(11)    c0        1
    B1(11)    c10       -1000000000
    B1(11)    c27       -25
    B1(11)    c28       -1000000025
    B1(11)    c40       -1000000000
    B1(11)    c41       -1000000000
    B1(11)    c44       -1000000000
    B1(11)    c45       -1000000000
    B1(11)    c46       -1000000000
    B1(11)    c47       -1000000000
    B1(11)    c110      -25
    B2(11)    c1        1
    B2(11)    c11       -1000000000
    B2(11)    c29       -40
    B2(11)    c30       -1000000040
    B2(11)    c50       -1000000000
    B2(11)    c51       -1000000000
    B2(11)    c52       -1000000000
    B2(11)    c53       -1000000000
    B2(11)    c58       -1000000000
    B2(11)    c59       -1000000000
    B2(11)    c110      -40
    B3(12)    c1        1
    B3(12)    c12       -1000000000
    B3(12)    c28       -1000000000
    B3(12)    c29       -30
    B3(12)    c30       -30
    B3(12)    c48       -1000000000
    B3(12)    c49       -1000000000
    B3(12)    c54       -1000000000
    B3(12)    c55       -1000000000
    B3(12)    c56       -1000000000
    B3(12)    c57       -1000000000
    B3(12)    c110      -30
    B4(10)    c2        1
    B4(10)    c13       -1000000000
    B4(10)    c30       -1000000000
    B4(10)    c62       -1000000000
    B4(10)    c63       -1000000000
    B4(10)    c66       -1000000000
    B4(10)    c67       -1000000000
    B4(10)    c72       -1000000000
    B4(10)    c73       -1000000000
    B4(10)    c110      -150
    B5(11)    c2        1
    B5(11)    c14       -1000000000
    B5(11)    c60       -1000000000
    B5(11)    c61       -1000000000
    B5(11)    c64       -1000000000
    B5(11)    c65       -1000000000
    B5(11)    c68       -1000000000
    B5(11)    c69       -1000000000
    B5(11)    c70       -1000000000
    B5(11)    c71       -1000000000
    B5(11)    c110      -160
    B6(8)     c3        1
    B6(8)     c15       -1000000000
    B6(8)     c31       -30
    B6(8)     c38       -1000000000
    B6(8)     c39       -1000000000
    B6(8)     c74       -1000000000
    B6(8)     c75       -1000000000
    B6(8)     c110      -30
    B7(10)    c3        1
    B7(10)    c16       -1000000000
    B7(10)    c31       -50
    B7(10)    c60       -1000000000
    B7(10)    c61       -1000000000
    B7(10)    c76       -1000000000
    B7(10)    c77       -1000000000
    B7(10)    c78       -1000000000
    B7(10)    c79       -1000000000
    B7(10)    c110      -50
    B8(11)    c4        1
    B8(11)    c17       -1000000000
    B8(11)    c32       -55
    B8(11)    c33       -1000000055
    B8(11)    c50       -1000000000
    B8(11)    c51       -1000000000
    B8(11)    c62       -1000000000
    B8(11)    c63       -1000000000
    B8(11)    c84       -1000000000
    B8(11)    c85       -1000000000
    B8(11)    c110      -55
    B9(13)    c4        1
    B9(13)    c18       -1000000000
    B9(13)    c32       -66
    B9(13)    c33       -66
    B9(13)    c40       -1000000000
    B9(13)    c41       -1000000000
    B9(13)    c48       -1000000000
    B9(13)    c49       -1000000000
    B9(13)    c80       -1000000000
    B9(13)    c81       -1000000000
    B9(13)    c82       -1000000000
    B9(13)    c83       -1000000000
    B9(13)    c110      -66
    B10(10)   c5        1
    B10(10)   c19       -1000000000
    B10(10)   c33       -1000000000
    B10(10)   c52       -1000000000
    B10(10)   c53       -1000000000
    B10(10)   c66       -1000000000
    B10(10)   c67       -1000000000
    B10(10)   c90       -1000000000
    B10(10)   c91       -1000000000
    B10(10)   c110      -78
    B11(9)    c5        1
    B11(9)    c20       -1000000000
    B11(9)    c64       -1000000000
    B11(9)    c65       -1000000000
    B11(9)    c86       -1000000000
    B11(9)    c87       -1000000000
    B11(9)    c88       -1000000000
    B11(9)    c89       -1000000000
    B11(9)    c110      -65
    B12(9)    c6        1
    B12(9)    c21       -1000000000
    B12(9)    c34       -56
    B12(9)    c35       -56
    B12(9)    c42       -1000000000
    B12(9)    c43       -1000000000
    B12(9)    c74       -1000000000
    B12(9)    c75       -1000000000
    B12(9)    c110      -56
    B13(11)   c6        1
    B13(11)   c22       -1000000000
    B13(11)   c34       -62
    B13(11)   c35       -1000000062
    B13(11)   c44       -1000000000
    B13(11)   c45       -1000000000
    B13(11)   c54       -1000000000
    B13(11)   c55       -1000000000
    B13(11)   c80       -1000000000
    B13(11)   c81       -1000000000
    B13(11)   c110      -62
    B14(12)   c7        1
    B14(12)   c23       -1000000000
    B14(12)   c35       -1000000000
    B14(12)   c36       -70
    B14(12)   c37       -70
    B14(12)   c46       -1000000000
    B14(12)   c47       -1000000000
    B14(12)   c56       -1000000000
    B14(12)   c57       -1000000000
    B14(12)   c82       -1000000000
    B14(12)   c83       -1000000000
    B14(12)   c110      -70
    B15(11)   c7        1
    B15(11)   c24       -1000000000
    B15(11)   c36       -80
    B15(11)   c37       -1000000080
    B15(11)   c68       -1000000000
    B15(11)   c69       -1000000000
    B15(11)   c76       -1000000000
    B15(11)   c77       -1000000000
    B15(11)   c86       -1000000000
    B15(11)   c87       -1000000000
    B15(11)   c110      -80
    B16(11)   c8        1
    B16(11)   c25       -1000000000
    B16(11)   c58       -1000000000
    B16(11)   c59       -1000000000
    B16(11)   c72       -1000000000
    B16(11)   c73       -1000000000
    B16(11)   c84       -1000000000
    B16(11)   c85       -1000000000
    B16(11)   c90       -1000000000
    B16(11)   c91       -1000000000
    B16(11)   c110      -90
    B17(10)   c8        1
    B17(10)   c26       -1000000000
    B17(10)   c37       -1000000000
    B17(10)   c70       -1000000000
    B17(10)   c71       -1000000000
    B17(10)   c78       -1000000000
    B17(10)   c79       -1000000000
    B17(10)   c88       -1000000000
    B17(10)   c89       -1000000000
    B17(10)   c110      -100
    B18(2)    c38       -1000000000
    B18(2)    c39       1000000000
    B19(2)    c40       -1000000000
    B19(2)    c41       1000000000
    B20(2)    c42       -1000000000
    B20(2)    c43       1000000000
    B21(2)    c44       -1000000000
    B21(2)    c45       1000000000
    B22(2)    c46       -1000000000
    B22(2)    c47       1000000000
    B23(2)    c48       -1000000000
    B23(2)    c49       1000000000
    B24(2)    c50       -1000000000
    B24(2)    c51       1000000000
    B25(2)    c52       -1000000000
    B25(2)    c53       1000000000
    B26(2)    c54       -1000000000
    B26(2)    c55       1000000000
    B27(2)    c56       -1000000000
    B27(2)    c57       1000000000
    B28(2)    c58       -1000000000
    B28(2)    c59       1000000000
    B29(2)    c60       -1000000000
    B29(2)    c61       1000000000
    B30(2)    c62       -1000000000
    B30(2)    c63       1000000000
    B31(2)    c64       -1000000000
    B31(2)    c65       1000000000
    B32(2)    c66       -1000000000
    B32(2)    c67       1000000000
    B33(2)    c68       -1000000000
    B33(2)    c69       1000000000
    B34(2)    c70       -1000000000
    B34(2)    c71       1000000000
    B35(2)    c72       -1000000000
    B35(2)    c73       1000000000
    B36(2)    c74       -1000000000
    B36(2)    c75       1000000000
    B37(2)    c76       -1000000000
    B37(2)    c77       1000000000
    B38(2)    c78       -1000000000
    B38(2)    c79       1000000000
    B39(2)    c80       -1000000000
    B39(2)    c81       1000000000
    B40(2)    c82       -1000000000
    B40(2)    c83       1000000000
    B41(2)    c84       -1000000000
    B41(2)    c85       1000000000
    B42(2)    c86       -1000000000
    B42(2)    c87       1000000000
    B43(2)    c88       -1000000000
    B43(2)    c89       1000000000
    B44(2)    c90       -1000000000
    B44(2)    c91       1000000000
    MARKER    'MARKER'                 'INTEND'
    C45(9)    c9        1
    C45(9)    c27       -1
    C45(9)    c28       -1
    C45(9)    c38       1
    C45(9)    c39       -1
    C45(9)    c42       1
    C45(9)    c43       -1
    C45(9)    c92       1
    C45(9)    c110      -1
    C46(11)   c10       1
    C46(11)   c27       -1
    C46(11)   c28       -1
    C46(11)   c40       1
    C46(11)   c41       -1
    C46(11)   c44       1
    C46(11)   c45       -1
    C46(11)   c46       1
    C46(11)   c47       -1
    C46(11)   c93       1
    C46(11)   c110      -1
    C47(13)   c11       1
    C47(13)   c27       1
    C47(13)   c28       1
    C47(13)   c29       -1
    C47(13)   c30       -1
    C47(13)   c50       1
    C47(13)   c51       -1
    C47(13)   c52       1
    C47(13)   c53       -1
    C47(13)   c58       1
    C47(13)   c59       -1
    C47(13)   c94       1
    C47(13)   c110      -1
    C48(13)   c12       1
    C48(13)   c27       1
    C48(13)   c28       1
    C48(13)   c29       -1
    C48(13)   c30       -1
    C48(13)   c48       1
    C48(13)   c49       -1
    C48(13)   c54       1
    C48(13)   c55       -1
    C48(13)   c56       1
    C48(13)   c57       -1
    C48(13)   c95       1
    C48(13)   c110      -1
    C49(11)   c13       1
    C49(11)   c29       1
    C49(11)   c30       1
    C49(11)   c62       1
    C49(11)   c63       -1
    C49(11)   c66       1
    C49(11)   c67       -1
    C49(11)   c72       1
    C49(11)   c73       -1
    C49(11)   c96       1
    C49(11)   c110      -1
    C50(13)   c14       1
    C50(13)   c29       1
    C50(13)   c30       1
    C50(13)   c60       1
    C50(13)   c61       -1
    C50(13)   c64       1
    C50(13)   c65       -1
    C50(13)   c68       1
    C50(13)   c69       -1
    C50(13)   c70       1
    C50(13)   c71       -1
    C50(13)   c97       1
    C50(13)   c110      -1
    C51(8)    c15       1
    C51(8)    c31       -1
    C51(8)    c38       -1
    C51(8)    c39       1
    C51(8)    c74       1
    C51(8)    c75       -1
    C51(8)    c98       1
    C51(8)    c110      -1
    C52(10)   c16       1
    C52(10)   c31       -1
    C52(10)   c60       -1
    C52(10)   c61       1
    C52(10)   c76       1
    C52(10)   c77       -1
    C52(10)   c78       1
    C52(10)   c79       -1
    C52(10)   c99       1
    C52(10)   c110      -1
    C53(12)   c17       1
    C53(12)   c31       1
    C53(12)   c32       -1
    C53(12)   c33       -1
    C53(12)   c50       -1
    C53(12)   c51       1
    C53(12)   c62       -1
    C53(12)   c63       1
    C53(12)   c84       1
    C53(12)   c85       -1
    C53(12)   c100      1
    C53(12)   c110      -1
    C54(14)   c18       1
    C54(14)   c31       1
    C54(14)   c32       -1
    C54(14)   c33       -1
    C54(14)   c40       -1
    C54(14)   c41       1
    C54(14)   c48       -1
    C54(14)   c49       1
    C54(14)   c80       1
    C54(14)   c81       -1
    C54(14)   c82       1
    C54(14)   c83       -1
    C54(14)   c101      1
    C54(14)   c110      -1
    C55(11)   c19       1
    C55(11)   c32       1
    C55(11)   c33       1
    C55(11)   c52       -1
    C55(11)   c53       1
    C55(11)   c66       -1
    C55(11)   c67       1
    C55(11)   c90       1
    C55(11)   c91       -1
    C55(11)   c102      1
    C55(11)   c110      -1
    C56(11)   c20       1
    C56(11)   c32       1
    C56(11)   c33       1
    C56(11)   c64       -1
    C56(11)   c65       1
    C56(11)   c86       1
    C56(11)   c87       -1
    C56(11)   c88       1
    C56(11)   c89       -1
    C56(11)   c103      1
    C56(11)   c110      -1
    C57(9)    c21       1
    C57(9)    c34       -1
    C57(9)    c35       -1
    C57(9)    c42       -1
    C57(9)    c43       1
    C57(9)    c74       -1
    C57(9)    c75       1
    C57(9)    c104      1
    C57(9)    c110      -1
    C58(11)   c22       1
    C58(11)   c34       -1
    C58(11)   c35       -1
    C58(11)   c44       -1
    C58(11)   c45       1
    C58(11)   c54       -1
    C58(11)   c55       1
    C58(11)   c80       -1
    C58(11)   c81       1
    C58(11)   c105      1
    C58(11)   c110      -1
    C59(13)   c23       1
    C59(13)   c34       1
    C59(13)   c35       1
    C59(13)   c36       -1
    C59(13)   c37       -1
    C59(13)   c46       -1
    C59(13)   c47       1
    C59(13)   c56       -1
    C59(13)   c57       1
    C59(13)   c82       -1
    C59(13)   c83       1
    C59(13)   c106      1
    C59(13)   c110      -1
    C60(13)   c24       1
    C60(13)   c34       1
    C60(13)   c35       1
    C60(13)   c36       -1
    C60(13)   c37       -1
    C60(13)   c68       -1
    C60(13)   c69       1
    C60(13)   c76       -1
    C60(13)   c77       1
    C60(13)   c86       -1
    C60(13)   c87       1
    C60(13)   c107      1
    C60(13)   c110      -1
    C61(13)   c25       1
    C61(13)   c36       1
    C61(13)   c37       1
    C61(13)   c58       -1
    C61(13)   c59       1
    C61(13)   c72       -1
    C61(13)   c73       1
    C61(13)   c84       -1
    C61(13)   c85       1
    C61(13)   c90       -1
    C61(13)   c91       1
    C61(13)   c108      1
    C61(13)   c110      -1
    C62(11)   c26       1
    C62(11)   c36       1
    C62(11)   c37       1
    C62(11)   c70       -1
    C62(11)   c71       1
    C62(11)   c78       -1
    C62(11)   c79       1
    C62(11)   c88       -1
    C62(11)   c89       1
    C62(11)   c109      1
    C62(11)   c110      -1
    C63(1)    OBJ       1
    C63(1)    c110      1
RHS
    RHS1      c0        1
    RHS1      c1        1
    RHS1      c2        1
    RHS1      c3        1
    RHS1      c4        1
    RHS1      c5        1
    RHS1      c6        1
    RHS1      c7        1
    RHS1      c8        1
    RHS1      c28       -1999999993
    RHS1      c30       -1999999995
    RHS1      c33       -1999999993
    RHS1      c35       -1999999995
    RHS1      c37       -1999999995
    RHS1      c38       -2999999964
    RHS1      c39       -1999999979
    RHS1      c40       -2999999928
    RHS1      c41       -1999999968
    RHS1      c42       -2999999940
    RHS1      c43       -1999999977
    RHS1      c44       -2999999929
    RHS1      c45       -1999999968
    RHS1      c46       -2999999925
    RHS1      c47       -1999999970
    RHS1      c48       -2999999929
    RHS1      c49       -1999999961
    RHS1      c50       -2999999937
    RHS1      c51       -1999999952
    RHS1      c52       -2999999915
    RHS1      c53       -1999999955
    RHS1      c54       -2999999931
    RHS1      c55       -1999999965
    RHS1      c56       -2999999923
    RHS1      c57       -1999999964
    RHS1      c58       -2999999901
    RHS1      c59       -1999999954
    RHS1      c60       -2999999944
    RHS1      c61       -1999999832
    RHS1      c62       -2999999937
    RHS1      c63       -1999999843
    RHS1      c64       -2999999929
    RHS1      c65       -1999999834
    RHS1      c66       -2999999915
    RHS1      c67       -1999999843
    RHS1      c68       -2999999913
    RHS1      c69       -1999999833
    RHS1      c70       -2999999892
    RHS1      c71       -1999999834
    RHS1      c72       -2999999905
    RHS1      c73       -1999999842
    RHS1      c74       -2999999939
    RHS1      c75       -1999999964
    RHS1      c76       -2999999911
    RHS1      c77       -1999999943
    RHS1      c78       -2999999895
    RHS1      c79       -1999999945
    RHS1      c80       -2999999930
    RHS1      c81       -1999999928
    RHS1      c82       -2999999924
    RHS1      c83       -1999999927
    RHS1      c84       -2999999904
    RHS1      c85       -1999999940
    RHS1      c86       -2999999912
    RHS1      c87       -1999999928
    RHS1      c88       -2999999892
    RHS1      c89       -1999999926
    RHS1      c90       -2999999904
    RHS1      c91       -1999999915
BOUNDS
 BV BND1      B0(9)   
 BV BND1      B1(11)  
 BV BND1      B2(11)  
 BV BND1      B3(12)  
 BV BND1      B4(10)  
 BV BND1      B5(11)  
 BV BND1      B6(8)   
 BV BND1      B7(10)  
 BV BND1      B8(11)  
 BV BND1      B9(13)  
 BV BND1      B10(10) 
 BV BND1      B11(9)  
 BV BND1      B12(9)  
 BV BND1      B13(11) 
 BV BND1      B14(12) 
 BV BND1      B15(11) 
 BV BND1      B16(11) 
 BV BND1      B17(10) 
 BV BND1      B18(2)  
 BV BND1      B19(2)  
 BV BND1      B20(2)  
 BV BND1      B21(2)  
 BV BND1      B22(2)  
 BV BND1      B23(2)  
 BV BND1      B24(2)  
 BV BND1      B25(2)  
 BV BND1      B26(2)  
 BV BND1      B27(2)  
 BV BND1      B28(2)  
 BV BND1      B29(2)  
 BV BND1      B30(2)  
 BV BND1      B31(2)  
 BV BND1      B32(2)  
 BV BND1      B33(2)  
 BV BND1      B34(2)  
 BV BND1      B35(2)  
 BV BND1      B36(2)  
 BV BND1      B37(2)  
 BV BND1      B38(2)  
 BV BND1      B39(2)  
 BV BND1      B40(2)  
 BV BND1      B41(2)  
 BV BND1      B42(2)  
 BV BND1      B43(2)  
 BV BND1      B44(2)  
ENDATA
