.old/.old_results_backup1/sol/Fattahi_setup_08.sol
# Solution for model F-JSSP-SDST
# Objective value = 1111
B0(9) 0
B1(11) 1
B2(11) 0
B3(12) 1
B4(10) 1
B5(11) 0
B6(8) 1
B7(10) 0
B8(11) 1
B9(13) 0
B10(10) 0
B11(9) 1
B12(9) 1
B13(11) 0
B14(12) 1
B15(11) 0
B16(11) 0
B17(10) 1
B18(2) 0
B19(2) 0
B20(2) 0
B21(2) 0
B22(2) 0
B23(2) 0
B24(2) 0
B25(2) 0
B26(2) 0
B27(2) 0
B28(2) 0
B29(2) 0
B30(2) 1
B31(2) 1
B32(2) 0
B33(2) 0
B34(2) 0
B35(2) 0
B36(2) 0
B37(2) 0
B38(2) 0
B39(2) 0
B40(2) 0
B41(2) 0
B42(2) 0
B43(2) 0
B44(2) 0
C45(9) 0
C46(11) 0
C47(13) 0
C48(13) 32
C49(11) 93
C50(13) 0
C51(8) 0
C52(10) 0
C53(12) 30
C54(14) 0
C55(11) 0
C56(11) 85
C57(9) 36
C58(11) 0
C59(13) 92
C60(13) 0
C61(13) 0
C62(11) 162
C63(1) 1111
