results/log/Fattahi_setup_08.log

Gurobi 10.0.1 (win64) logging started Wed Apr 12 07:35:28 2023

Set parameter LogFile to value "results/log/Fattahi_setup_08.log"
Gurobi Optimizer version 10.0.1 build v10.0.1rc0 (win64)

CPU model: AMD Ryzen 7 3700X 8-Core Processor, instruction set [SSE2|AVX|AVX2]
Thread count: 8 physical cores, 16 logical processors, using up to 16 threads

Optimize a model with 111 rows, 64 columns and 450 nonzeros
Model fingerprint: 0xa10440e5
Variable types: 19 continuous, 45 integer (45 binary)
Coefficient statistics:
  Matrix range     [1e+00, 1e+09]
  Objective range  [1e+00, 1e+00]
  Bounds range     [1e+00, 1e+00]
  RHS range        [1e+00, 3e+09]
Warning: Model contains large matrix coefficients
Warning: Model contains large rhs
         Consider reformulating model or setting NumericFocus parameter
         to avoid numerical issues.
Presolve removed 28 rows and 10 columns
Presolve time: 0.00s
Presolved: 83 rows, 54 columns, 366 nonzeros
Variable types: 18 continuous, 36 integer (36 binary)
Found heuristic solution: objective 1624.0000000
Found heuristic solution: objective 1274.9999782

Root relaxation: objective 9.240000e+02, 14 iterations, 0.00 seconds (0.00 work units)

    Nodes    |    Current Node    |     Objective Bounds      |     Work
 Expl Unexpl |  Obj  Depth IntInf | Incumbent    BestBd   Gap | It/Node Time

     0     0  924.00000    0    8 1274.99998  924.00000  27.5%     -    0s
     0     0  924.00000    0    6 1274.99998  924.00000  27.5%     -    0s
H    0     0                    1190.0000000  924.00000  22.4%     -    0s
     0     0  934.00000    0    6 1190.00000  934.00000  21.5%     -    0s
     0     0  934.00000    0    7 1190.00000  934.00000  21.5%     -    0s
H    0     0                    1189.9999996  934.00000  21.5%     -    0s
     0     0  934.00000    0    7 1190.00000  934.00000  21.5%     -    0s
H    0     0                    1176.0000000  947.00000  19.5%     -    0s
     0     0  947.00000    0    6 1176.00000  947.00000  19.5%     -    0s
H    0     0                    1148.0000000  947.00000  17.5%     -    0s
     0     0  947.00000    0    6 1148.00000  947.00000  17.5%     -    0s
     0     0  947.68421    0    6 1148.00000  947.68421  17.4%     -    0s
     0     0  947.68421    0    6 1148.00000  947.68421  17.4%     -    0s
H    0     0                    1111.0000000  947.68421  14.7%     -    0s
     0     2  947.68421    0    6 1111.00000  947.68421  14.7%     -    0s
H  186    10                    1110.9999995 1026.75085  7.58%   2.9    0s

Cutting planes:
  Implied bound: 5
  MIR: 3
  Flow cover: 10

Explored 236 nodes (721 simplex iterations) in 0.04 seconds (0.01 work units)
Thread count was 16 (of 16 available processors)

Solution count 8: 1111 1111 1111 ... 1624

Optimal solution found (tolerance 1.00e-04)
Best objective 1.111000000000e+03, best bound 1.111000000000e+03, gap 0.0000%
Warning: variable name "y[job:0, stage:0, machine:1]" has a space
Warning: constraint name "precedence between 1,0 to 0,0 if x_[j,l,h,z,i]=1" has a space
Warning: to let Gurobi read it back, use rlp format
Warning: variable name "y[job:0, stage:0, machine:1]" has a space
Warning: constraint name "precedence between 1,0 to 0,0 if x_[j,l,h,z,i]=1" has a space
Warning: default variable names used to write mps file
Warning: default constraint names used to write mps file
Warning: variable name "y[job:0, stage:0, machine:1]" has a space
Warning: default variable names used to write solution file
